column=10;
row=10;
Board=[|1,0,0,0,4,6,5,0,2,0|0,0,1,0,0,0,0,0,3,0|0,0,0,0,1,0,2,0,0,0|0,4,5,0,0,0,0,0,1,0|0,0,0,0,2,0,0,0,0,0|2,0,0,0,6,0,0,0,0,0|6,0,0,0,6,0,0,0,0,0|0,0,0,0,3,0,0,0,0,0|0,0,0,0,0,0,0,0,0,0|0,0,0,0,0,0,0,0,0,0|];
Lighthouse=[|-1,-1,-1,-1,-1,-1,-1,-1,-1,-1|-1,-1,-1,-1,-1,-1,-1,-1,-1,-1|-1,-1,-1,-1,-1,-1,-1,-1,-1,-1|-1,-1,-1,-1,-1,-1,-1,-1,-1,-1|-1,-1,-1,-1,-1,-1,-1,-1,-1,-1|-1,-1,-1,-1,-1,-1,5,2,5,2|-1,-1,4,-1,-1,-1,-1,2,5,2|-1,-1,-1,-1,-1,-1,5,2,5,2|-1,-1,2,-1,-1,-1,3,0,3,0|4,1,2,0,6,1,3,-1,3,0|];
